0001 10
0002 5
0003 15
0004 3
0005 5
0006 10
0007 10
0008 14
0009 17
0010 16
0011 11
0012 11
0013 18
0014 6
0015 15
0016 7
0017 9
0018 12
0019 4
0020 3
0021 9
0022 12
0023 11
0024 6
0025 16
0026 11
0027 4
0028 21
0029 21
0030 21
0031 21
0032 21
0033 21
0034 21
0035 21
0036 21
0037 21
0038 21
0039 20
0040 19
0041 19
0042 18
0043 19
0044 5
0045 10
0046 21
0047 5
0048 5
0049 16
0050 8
0051 15
0052 9
0053 9
0054 12
0055 12
0056 3
0057 6
0058 2
0059 1
0060 1
0061 7
0062 15
0063 3
0064 12
0065 7
0066 15
0067 8
0068 12
0069 5
0070 2
0071 1
0072 2
0073 15
0074 21
0075 6
0076 10
0077 3
0078 14
0079 12
0080 12
0081 12
0082 12
0083 7
0084 7
0085 16
0086 16
0087 18
0088 7
0089 21
0090 7
0091 9
0092 16
0093 13
0094 3
0095 9
0096 15
0097 1
0098 6
0099 20
0100 1
0101 2
0102 14
0103 13
0104 17
0105 3
0106 4
0107 8
0108 8
0109 8
0110 7
0111 7
0112 1
0113 1
0114 1
0115 1
0116 1
0117 6
0118 1
0119 13
0120 3
0121 16
0122 16
0123 11
0124 21
0125 15
0126 3
0127 8
0128 4
0129 4
0130 18
0131 18
0132 18
0133 18
0134 15
0135 15
0136 5
0137 4
0138 12
0139 11
0140 6
0141 7
0142 18
0143 12
0144 9
0145 4
0146 17
0147 12
0148 8
0149 9
0150 12
0151 5
0152 13
0153 14
0154 14
0155 18
0156 19
0157 10
0158 9
0159 4
0160 3
0161 17
0162 6
0163 18
0164 12
0165 2
0166 4
0167 9
0168 16
0169 10
0170 7
0171 2
0172 4
0173 5
0174 16
0175 13
0176 3
0177 17
0178 2
0179 11
0180 15
0181 3